p cnf 50 20
x 1 4 5 6 -7 -8 -9 11 12 -15 -17 18 19 -25 -26 28 -29 -32 33 -37 -38 -41 42 -43 -44 47 -50 0
x -1 4 6 -7 9 -10 11 12 13 14 -18 19 -20 -21 22 -24 -25 26 -27 -29 -30 -31 32 -39 -41 45 48 50 0
x 3 4 -7 -11 -16 17 -20 -22 -24 26 27 -28 32 -34 -35 37 -40 41 43 -49 -50 0
x -1 -2 3 4 6 7 -9 -10 11 13 -14 15 16 18 21 -24 -25 -27 31 34 35 -36 40 -43 44 48 49 0
x 3 4 -5 7 -8 9 -10 14 16 18 19 -20 -22 23 -24 26 27 29 31 37 38 39 -40 42 43 47 -49 0
x -5 -6 -10 12 14 -15 -16 -20 -21 -22 -24 -25 26 27 -29 -34 36 -39 40 41 44 -47 -50 0
x 1 3 -6 10 -13 14 -15 -17 -20 21 -22 -24 26 -27 28 32 -37 -40 -45 46 -49 50 0
x -4 -8 -9 10 -13 19 20 -23 -24 28 29 31 -32 34 39 40 -41 42 -44 -46 47 -49 50 0
x -2 -8 -9 10 -15 -17 -18 -19 -20 23 -24 26 27 -28 -29 -30 -31 32 33 -37 38 -41 -42 -45 46 -48 49 0
x 6 8 11 -13 17 -20 21 -23 24 -25 27 -28 29 30 -36 39 40 41 -42 47 -50 0
x -5 -6 9 -10 11 -14 15 -16 -18 -19 20 -21 22 24 26 27 32 34 -35 -37 39 41 42 -46 -47 49 0
x -1 -2 5 6 -7 -9 -10 -12 16 -17 -21 -22 -26 28 -29 30 31 -33 34 -35 -36 -41 -42 45 46 47 48 -50 0
x -5 10 -11 -12 -14 15 -17 18 -20 22 23 -25 -27 -30 35 36 38 -39 -41 -45 46 -48 50 0
x -2 -8 9 -14 -15 -19 21 23 -27 -30 31 32 34 36 -39 40 -41 -46 49 0
x -1 3 5 -7 -11 -15 16 -17 -18 19 -20 21 23 -24 25 -26 28 29 30 33 34 38 -42 43 -44 -47 48 -49 0
x -1 6 -7 8 -9 13 14 16 17 -18 -19 -24 -25 29 30 31 -34 -35 -39 40 41 42 43 44 -45 46 -48 49 -50 0
x 1 4 -5 6 8 10 -11 -14 -16 -17 19 -22 -30 -32 33 -34 -35 -37 39 -47 48 0
x 1 -3 5 -6 7 9 11 -12 13 -14 17 -18 19 21 -22 -24 -26 -28 -29 -31 33 37 -38 40 -41 45 46 47 -48 -49 0
x -1 2 -3 6 -7 10 -11 -16 18 19 -20 -21 24 25 -27 30 -31 -32 -34 -35 38 -39 43 45 -46 49 0
x -8 9 -12 13 -17 18 19 20 -23 -27 28 -29 -32 34 37 38 39 -41 44 -48 50 0
g -15